80 9430239
77 12 35 79 31 10 67 62 17 19 65 38 46 14 50 64 39 36 76 3 52 47 20 54 13 27 44 48 70 18 53 49 78 55 34 26 80 5 22 2 15 42 61 1 51 25 23 72 66 8 71 37 59 32 58 16 9 29 56 73 75 30 43 28 24 41 69 21 6 4 33 7 11 63 60 45 40 74 57 68 
